859358
10,22,97,53,64,51,42,23,77,24,50,78,28,39,93,25,16,11,18,58,89,70,33,27,45,66,60,57,81,15,14,82,34,96,41,1,26,63,4,2,84,88,7,52,90,43,54,71,35,49,87,37,75,86,98,67,62,12,79,36,47,0,69,73,31,59,30,61,92,48,9,55,68,74,5,40,17,76,29,95,20,19,8,32,56,46,94,72,21,83,91,38,6,65,3,44,85,80,13
